p cnf 200 1110
-101 -97 0
-101 -96 0
-101 -18 0
-101 23 0
-101 -98 0
-101 89 0
-101 -5 0
-101 70 0
-101 -84 0
-101 68 0
101 97 96 18 -23 98 -89 5 -70 84 -68 0
-102 -37 0
-102 2 0
-102 64 0
-102 -77 0
-102 35 0
-102 53 0
-102 22 0
-102 -46 0
-102 -89 0
-102 58 0
102 37 -2 -64 77 -35 -53 -22 46 89 -58 0
-103 -39 0
-103 -4 0
-103 -3 0
-103 -33 0
-103 6 0
-103 -58 0
-103 57 0
-103 -21 0
-103 96 0
-103 83 0
103 39 4 3 33 -6 58 -57 21 -96 -83 0
-104 -56 0
-104 -41 0
-104 -14 0
-104 -26 0
-104 30 0
-104 -52 0
-104 75 0
-104 -53 0
-104 -20 0
-104 -42 0
104 56 41 14 26 -30 52 -75 53 20 42 0
-105 81 0
-105 47 0
-105 -84 0
-105 55 0
-105 -34 0
-105 60 0
-105 -74 0
-105 -35 0
-105 -12 0
-105 78 0
105 -81 -47 84 -55 34 -60 74 35 12 -78 0
-106 24 0
-106 74 0
-106 56 0
-106 100 0
-106 76 0
-106 -35 0
-106 84 0
-106 16 0
-106 -14 0
-106 -86 0
106 -24 -74 -56 -100 -76 35 -84 -16 14 86 0
-107 -2 0
-107 38 0
-107 80 0
-107 -64 0
-107 -14 0
-107 -8 0
-107 59 0
-107 -79 0
-107 -32 0
-107 -5 0
107 2 -38 -80 64 14 8 -59 79 32 5 0
-108 -34 0
-108 -100 0
-108 -57 0
-108 -92 0
-108 39 0
-108 -83 0
-108 68 0
-108 87 0
-108 43 0
-108 -15 0
108 34 100 57 92 -39 83 -68 -87 -43 15 0
-109 43 0
-109 51 0
-109 -16 0
-109 -40 0
-109 -37 0
-109 -24 0
-109 82 0
-109 86 0
-109 94 0
-109 59 0
109 -43 -51 16 40 37 24 -82 -86 -94 -59 0
-110 68 0
-110 14 0
-110 -8 0
-110 -81 0
-110 -22 0
-110 61 0
-110 -94 0
-110 35 0
-110 -98 0
-110 9 0
110 -68 -14 8 81 22 -61 94 -35 98 -9 0
101 102 103 104 105 106 107 108 109 110 0
-111 58 0
-111 3 0
-111 99 0
-111 -67 0
-111 -44 0
-111 -79 0
-111 -42 0
-111 77 0
-111 -71 0
-111 -57 0
111 -58 -3 -99 67 44 79 42 -77 71 57 0
-112 84 0
-112 8 0
-112 61 0
-112 -62 0
-112 27 0
-112 -7 0
-112 -24 0
-112 14 0
-112 11 0
-112 -74 0
112 -84 -8 -61 62 -27 7 24 -14 -11 74 0
-113 -50 0
-113 27 0
-113 26 0
-113 -69 0
-113 78 0
-113 73 0
-113 -89 0
-113 -49 0
-113 -42 0
-113 -53 0
113 50 -27 -26 69 -78 -73 89 49 42 53 0
-114 -85 0
-114 39 0
-114 -72 0
-114 87 0
-114 -20 0
-114 42 0
-114 -31 0
-114 -77 0
-114 -60 0
-114 75 0
114 85 -39 72 -87 20 -42 31 77 60 -75 0
-115 14 0
-115 -75 0
-115 32 0
-115 79 0
-115 -65 0
-115 47 0
-115 -12 0
-115 -90 0
-115 -100 0
-115 68 0
115 -14 75 -32 -79 65 -47 12 90 100 -68 0
-116 75 0
-116 8 0
-116 -45 0
-116 1 0
-116 -88 0
-116 53 0
-116 54 0
-116 69 0
-116 27 0
-116 36 0
116 -75 -8 45 -1 88 -53 -54 -69 -27 -36 0
-117 -98 0
-117 -46 0
-117 75 0
-117 88 0
-117 91 0
-117 -27 0
-117 51 0
-117 47 0
-117 -14 0
-117 -59 0
117 98 46 -75 -88 -91 27 -51 -47 14 59 0
-118 -71 0
-118 59 0
-118 20 0
-118 38 0
-118 -34 0
-118 -53 0
-118 49 0
-118 -56 0
-118 75 0
-118 88 0
118 71 -59 -20 -38 34 53 -49 56 -75 -88 0
-119 36 0
-119 -95 0
-119 -1 0
-119 -21 0
-119 -24 0
-119 -75 0
-119 84 0
-119 -34 0
-119 -90 0
-119 -66 0
119 -36 95 1 21 24 75 -84 34 90 66 0
-120 24 0
-120 41 0
-120 -61 0
-120 -59 0
-120 30 0
-120 -19 0
-120 36 0
-120 16 0
-120 44 0
-120 23 0
120 -24 -41 61 59 -30 19 -36 -16 -44 -23 0
111 112 113 114 115 116 117 118 119 120 0
-121 -40 0
-121 26 0
-121 75 0
-121 -6 0
-121 -51 0
-121 -34 0
-121 54 0
-121 -59 0
-121 70 0
-121 -80 0
121 40 -26 -75 6 51 34 -54 59 -70 80 0
-122 -98 0
-122 30 0
-122 -64 0
-122 -87 0
-122 58 0
-122 29 0
-122 7 0
-122 -10 0
-122 -37 0
-122 49 0
122 98 -30 64 87 -58 -29 -7 10 37 -49 0
-123 -33 0
-123 31 0
-123 38 0
-123 -80 0
-123 79 0
-123 -74 0
-123 25 0
-123 -17 0
-123 -43 0
-123 -68 0
123 33 -31 -38 80 -79 74 -25 17 43 68 0
-124 18 0
-124 63 0
-124 99 0
-124 -54 0
-124 -87 0
-124 71 0
-124 -61 0
-124 45 0
-124 4 0
-124 -97 0
124 -18 -63 -99 54 87 -71 61 -45 -4 97 0
-125 -49 0
-125 81 0
-125 -27 0
-125 32 0
-125 98 0
-125 92 0
-125 85 0
-125 84 0
-125 42 0
-125 50 0
125 49 -81 27 -32 -98 -92 -85 -84 -42 -50 0
-126 33 0
-126 72 0
-126 -56 0
-126 -20 0
-126 -14 0
-126 -58 0
-126 -98 0
-126 27 0
-126 -51 0
-126 -63 0
126 -33 -72 56 20 14 58 98 -27 51 63 0
-127 -19 0
-127 -39 0
-127 -76 0
-127 54 0
-127 -67 0
-127 -91 0
-127 -28 0
-127 -80 0
-127 -83 0
-127 -93 0
127 19 39 76 -54 67 91 28 80 83 93 0
-128 -22 0
-128 -42 0
-128 35 0
-128 -3 0
-128 -90 0
-128 -100 0
-128 24 0
-128 98 0
-128 59 0
-128 -69 0
128 22 42 -35 3 90 100 -24 -98 -59 69 0
-129 -38 0
-129 -35 0
-129 -47 0
-129 -82 0
-129 -88 0
-129 -54 0
-129 36 0
-129 -2 0
-129 100 0
-129 21 0
129 38 35 47 82 88 54 -36 2 -100 -21 0
-130 51 0
-130 -9 0
-130 70 0
-130 -16 0
-130 56 0
-130 3 0
-130 38 0
-130 24 0
-130 -39 0
-130 7 0
130 -51 9 -70 16 -56 -3 -38 -24 39 -7 0
121 122 123 124 125 126 127 128 129 130 0
-131 89 0
-131 -86 0
-131 44 0
-131 -61 0
-131 -96 0
-131 -73 0
-131 95 0
-131 42 0
-131 98 0
-131 47 0
131 -89 86 -44 61 96 73 -95 -42 -98 -47 0
-132 -36 0
-132 25 0
-132 -32 0
-132 89 0
-132 46 0
-132 21 0
-132 47 0
-132 -68 0
-132 -42 0
-132 -23 0
132 36 -25 32 -89 -46 -21 -47 68 42 23 0
-133 30 0
-133 91 0
-133 73 0
-133 54 0
-133 41 0
-133 -34 0
-133 75 0
-133 -21 0
-133 -51 0
-133 -23 0
133 -30 -91 -73 -54 -41 34 -75 21 51 23 0
-134 52 0
-134 10 0
-134 13 0
-134 45 0
-134 -99 0
-134 79 0
-134 -62 0
-134 90 0
-134 3 0
-134 16 0
134 -52 -10 -13 -45 99 -79 62 -90 -3 -16 0
-135 -24 0
-135 -70 0
-135 -80 0
-135 53 0
-135 -49 0
-135 11 0
-135 16 0
-135 -15 0
-135 92 0
-135 48 0
135 24 70 80 -53 49 -11 -16 15 -92 -48 0
-136 -52 0
-136 4 0
-136 91 0
-136 -56 0
-136 -90 0
-136 93 0
-136 45 0
-136 11 0
-136 -62 0
-136 61 0
136 52 -4 -91 56 90 -93 -45 -11 62 -61 0
-137 -67 0
-137 45 0
-137 27 0
-137 8 0
-137 57 0
-137 47 0
-137 52 0
-137 -35 0
-137 -87 0
-137 63 0
137 67 -45 -27 -8 -57 -47 -52 35 87 -63 0
-138 77 0
-138 -100 0
-138 13 0
-138 -85 0
-138 61 0
-138 65 0
-138 45 0
-138 22 0
-138 -16 0
-138 -67 0
138 -77 100 -13 85 -61 -65 -45 -22 16 67 0
-139 18 0
-139 -62 0
-139 -32 0
-139 -88 0
-139 8 0
-139 10 0
-139 -5 0
-139 -27 0
-139 -36 0
-139 96 0
139 -18 62 32 88 -8 -10 5 27 36 -96 0
-140 -30 0
-140 20 0
-140 55 0
-140 -40 0
-140 -43 0
-140 86 0
-140 4 0
-140 23 0
-140 11 0
-140 -90 0
140 30 -20 -55 40 43 -86 -4 -23 -11 90 0
131 132 133 134 135 136 137 138 139 140 0
-141 -45 0
-141 -83 0
-141 -48 0
-141 53 0
-141 -29 0
-141 -14 0
-141 54 0
-141 -100 0
-141 -91 0
-141 88 0
141 45 83 48 -53 29 14 -54 100 91 -88 0
-142 22 0
-142 60 0
-142 16 0
-142 5 0
-142 -38 0
-142 50 0
-142 67 0
-142 65 0
-142 87 0
-142 -53 0
142 -22 -60 -16 -5 38 -50 -67 -65 -87 53 0
-143 18 0
-143 -78 0
-143 11 0
-143 -93 0
-143 -60 0
-143 -24 0
-143 -91 0
-143 86 0
-143 -82 0
-143 -32 0
143 -18 78 -11 93 60 24 91 -86 82 32 0
-144 23 0
-144 -85 0
-144 -88 0
-144 -40 0
-144 91 0
-144 67 0
-144 2 0
-144 -18 0
-144 22 0
-144 31 0
144 -23 85 88 40 -91 -67 -2 18 -22 -31 0
-145 -97 0
-145 62 0
-145 14 0
-145 34 0
-145 -40 0
-145 55 0
-145 56 0
-145 94 0
-145 -70 0
-145 -30 0
145 97 -62 -14 -34 40 -55 -56 -94 70 30 0
-146 -3 0
-146 -89 0
-146 20 0
-146 -76 0
-146 -78 0
-146 44 0
-146 -41 0
-146 -34 0
-146 43 0
-146 22 0
146 3 89 -20 76 78 -44 41 34 -43 -22 0
-147 -100 0
-147 -32 0
-147 48 0
-147 -68 0
-147 14 0
-147 17 0
-147 -35 0
-147 96 0
-147 46 0
-147 23 0
147 100 32 -48 68 -14 -17 35 -96 -46 -23 0
-148 39 0
-148 48 0
-148 34 0
-148 56 0
-148 -99 0
-148 43 0
-148 -9 0
-148 49 0
-148 -32 0
-148 -12 0
148 -39 -48 -34 -56 99 -43 9 -49 32 12 0
-149 -28 0
-149 56 0
-149 7 0
-149 63 0
-149 43 0
-149 -71 0
-149 58 0
-149 -45 0
-149 -50 0
-149 -69 0
149 28 -56 -7 -63 -43 71 -58 45 50 69 0
-150 50 0
-150 76 0
-150 -26 0
-150 -89 0
-150 63 0
-150 -5 0
-150 -48 0
-150 51 0
-150 84 0
-150 -40 0
150 -50 -76 26 89 -63 5 48 -51 -84 40 0
141 142 143 144 145 146 147 148 149 150 0
-151 -21 0
-151 -95 0
-151 58 0
-151 -19 0
-151 77 0
-151 48 0
-151 -18 0
-151 90 0
-151 -72 0
-151 7 0
151 21 95 -58 19 -77 -48 18 -90 72 -7 0
-152 57 0
-152 -5 0
-152 41 0
-152 -25 0
-152 -3 0
-152 31 0
-152 -14 0
-152 12 0
-152 -99 0
-152 50 0
152 -57 5 -41 25 3 -31 14 -12 99 -50 0
-153 -57 0
-153 82 0
-153 53 0
-153 -26 0
-153 60 0
-153 -6 0
-153 28 0
-153 62 0
-153 54 0
-153 91 0
153 57 -82 -53 26 -60 6 -28 -62 -54 -91 0
-154 -55 0
-154 -44 0
-154 100 0
-154 40 0
-154 61 0
-154 19 0
-154 7 0
-154 29 0
-154 -71 0
-154 -94 0
154 55 44 -100 -40 -61 -19 -7 -29 71 94 0
-155 -95 0
-155 94 0
-155 54 0
-155 -56 0
-155 51 0
-155 -17 0
-155 58 0
-155 84 0
-155 -53 0
-155 -22 0
155 95 -94 -54 56 -51 17 -58 -84 53 22 0
-156 -92 0
-156 -54 0
-156 16 0
-156 -1 0
-156 -41 0
-156 61 0
-156 42 0
-156 93 0
-156 -26 0
-156 -87 0
156 92 54 -16 1 41 -61 -42 -93 26 87 0
-157 -61 0
-157 77 0
-157 81 0
-157 -92 0
-157 -40 0
-157 31 0
-157 -54 0
-157 5 0
-157 -96 0
-157 -98 0
157 61 -77 -81 92 40 -31 54 -5 96 98 0
-158 -57 0
-158 20 0
-158 65 0
-158 -42 0
-158 12 0
-158 -38 0
-158 -28 0
-158 8 0
-158 -11 0
-158 31 0
158 57 -20 -65 42 -12 38 28 -8 11 -31 0
-159 64 0
-159 4 0
-159 13 0
-159 -50 0
-159 -12 0
-159 49 0
-159 79 0
-159 -91 0
-159 32 0
-159 1 0
159 -64 -4 -13 50 12 -49 -79 91 -32 -1 0
-160 -1 0
-160 10 0
-160 -76 0
-160 -79 0
-160 85 0
-160 31 0
-160 -87 0
-160 86 0
-160 -49 0
-160 -17 0
160 1 -10 76 79 -85 -31 87 -86 49 17 0
151 152 153 154 155 156 157 158 159 160 0
-161 94 0
-161 -27 0
-161 -31 0
-161 7 0
-161 77 0
-161 100 0
-161 -53 0
-161 -58 0
-161 25 0
-161 -85 0
161 -94 27 31 -7 -77 -100 53 58 -25 85 0
-162 -34 0
-162 32 0
-162 -86 0
-162 -78 0
-162 54 0
-162 35 0
-162 5 0
-162 61 0
-162 -64 0
-162 -81 0
162 34 -32 86 78 -54 -35 -5 -61 64 81 0
-163 10 0
-163 -40 0
-163 -7 0
-163 18 0
-163 57 0
-163 88 0
-163 -11 0
-163 3 0
-163 -51 0
-163 -81 0
163 -10 40 7 -18 -57 -88 11 -3 51 81 0
-164 79 0
-164 -51 0
-164 -55 0
-164 -52 0
-164 9 0
-164 26 0
-164 7 0
-164 -63 0
-164 -80 0
-164 91 0
164 -79 51 55 52 -9 -26 -7 63 80 -91 0
-165 82 0
-165 17 0
-165 -39 0
-165 52 0
-165 61 0
-165 49 0
-165 100 0
-165 6 0
-165 48 0
-165 -93 0
165 -82 -17 39 -52 -61 -49 -100 -6 -48 93 0
-166 73 0
-166 -7 0
-166 64 0
-166 -72 0
-166 -75 0
-166 37 0
-166 -4 0
-166 -2 0
-166 46 0
-166 -70 0
166 -73 7 -64 72 75 -37 4 2 -46 70 0
-167 -62 0
-167 56 0
-167 14 0
-167 -44 0
-167 -12 0
-167 -39 0
-167 -2 0
-167 63 0
-167 29 0
-167 43 0
167 62 -56 -14 44 12 39 2 -63 -29 -43 0
-168 56 0
-168 -20 0
-168 -39 0
-168 18 0
-168 -69 0
-168 -50 0
-168 -48 0
-168 52 0
-168 68 0
-168 -88 0
168 -56 20 39 -18 69 50 48 -52 -68 88 0
-169 -19 0
-169 -9 0
-169 56 0
-169 -23 0
-169 98 0
-169 52 0
-169 -4 0
-169 83 0
-169 11 0
-169 -16 0
169 19 9 -56 23 -98 -52 4 -83 -11 16 0
-170 -84 0
-170 -95 0
-170 -88 0
-170 59 0
-170 -34 0
-170 -15 0
-170 -89 0
-170 -17 0
-170 -79 0
-170 67 0
170 84 95 88 -59 34 15 89 17 79 -67 0
161 162 163 164 165 166 167 168 169 170 0
-171 49 0
-171 -76 0
-171 88 0
-171 47 0
-171 90 0
-171 -25 0
-171 75 0
-171 55 0
-171 26 0
-171 87 0
171 -49 76 -88 -47 -90 25 -75 -55 -26 -87 0
-172 -78 0
-172 -81 0
-172 -35 0
-172 99 0
-172 -33 0
-172 -77 0
-172 5 0
-172 -75 0
-172 30 0
-172 -79 0
172 78 81 35 -99 33 77 -5 75 -30 79 0
-173 84 0
-173 -62 0
-173 -43 0
-173 11 0
-173 16 0
-173 -14 0
-173 -92 0
-173 52 0
-173 -30 0
-173 60 0
173 -84 62 43 -11 -16 14 92 -52 30 -60 0
-174 84 0
-174 66 0
-174 58 0
-174 -88 0
-174 79 0
-174 -61 0
-174 92 0
-174 12 0
-174 39 0
-174 -97 0
174 -84 -66 -58 88 -79 61 -92 -12 -39 97 0
-175 9 0
-175 -55 0
-175 -80 0
-175 -14 0
-175 -1 0
-175 8 0
-175 -50 0
-175 -3 0
-175 100 0
-175 49 0
175 -9 55 80 14 1 -8 50 3 -100 -49 0
-176 31 0
-176 -81 0
-176 83 0
-176 66 0
-176 -39 0
-176 94 0
-176 49 0
-176 57 0
-176 -62 0
-176 84 0
176 -31 81 -83 -66 39 -94 -49 -57 62 -84 0
-177 -60 0
-177 89 0
-177 94 0
-177 -93 0
-177 -83 0
-177 -33 0
-177 67 0
-177 42 0
-177 91 0
-177 80 0
177 60 -89 -94 93 83 33 -67 -42 -91 -80 0
-178 -28 0
-178 54 0
-178 80 0
-178 40 0
-178 -61 0
-178 -29 0
-178 -18 0
-178 -81 0
-178 -96 0
-178 -39 0
178 28 -54 -80 -40 61 29 18 81 96 39 0
-179 -38 0
-179 -68 0
-179 -46 0
-179 96 0
-179 -25 0
-179 -70 0
-179 77 0
-179 84 0
-179 13 0
-179 -29 0
179 38 68 46 -96 25 70 -77 -84 -13 29 0
-180 -97 0
-180 82 0
-180 33 0
-180 -34 0
-180 -61 0
-180 -66 0
-180 -99 0
-180 -71 0
-180 93 0
-180 41 0
180 97 -82 -33 34 61 66 99 71 -93 -41 0
171 172 173 174 175 176 177 178 179 180 0
-181 71 0
-181 91 0
-181 -82 0
-181 -10 0
-181 -28 0
-181 66 0
-181 53 0
-181 -47 0
-181 57 0
-181 -8 0
181 -71 -91 82 10 28 -66 -53 47 -57 8 0
-182 55 0
-182 -82 0
-182 -23 0
-182 -38 0
-182 -78 0
-182 -84 0
-182 -34 0
-182 -14 0
-182 -3 0
-182 -2 0
182 -55 82 23 38 78 84 34 14 3 2 0
-183 -46 0
-183 -36 0
-183 77 0
-183 -32 0
-183 100 0
-183 -97 0
-183 -23 0
-183 99 0
-183 -28 0
-183 -18 0
183 46 36 -77 32 -100 97 23 -99 28 18 0
-184 -23 0
-184 56 0
-184 -86 0
-184 -44 0
-184 -19 0
-184 -1 0
-184 39 0
-184 -63 0
-184 -61 0
-184 -48 0
184 23 -56 86 44 19 1 -39 63 61 48 0
-185 -58 0
-185 40 0
-185 -100 0
-185 87 0
-185 61 0
-185 53 0
-185 -95 0
-185 -60 0
-185 -10 0
-185 97 0
185 58 -40 100 -87 -61 -53 95 60 10 -97 0
-186 -71 0
-186 53 0
-186 -25 0
-186 6 0
-186 -74 0
-186 -35 0
-186 82 0
-186 -24 0
-186 -3 0
-186 -64 0
186 71 -53 25 -6 74 35 -82 24 3 64 0
-187 69 0
-187 -57 0
-187 -22 0
-187 -50 0
-187 32 0
-187 -89 0
-187 94 0
-187 -46 0
-187 48 0
-187 -45 0
187 -69 57 22 50 -32 89 -94 46 -48 45 0
-188 55 0
-188 52 0
-188 42 0
-188 57 0
-188 19 0
-188 67 0
-188 25 0
-188 96 0
-188 -99 0
-188 68 0
188 -55 -52 -42 -57 -19 -67 -25 -96 99 -68 0
-189 70 0
-189 32 0
-189 37 0
-189 -30 0
-189 26 0
-189 88 0
-189 -36 0
-189 92 0
-189 76 0
-189 -52 0
189 -70 -32 -37 30 -26 -88 36 -92 -76 52 0
-190 29 0
-190 -43 0
-190 -70 0
-190 12 0
-190 42 0
-190 94 0
-190 86 0
-190 38 0
-190 -47 0
-190 35 0
190 -29 43 70 -12 -42 -94 -86 -38 47 -35 0
181 182 183 184 185 186 187 188 189 190 0
-191 -64 0
-191 -2 0
-191 -31 0
-191 41 0
-191 9 0
-191 85 0
-191 26 0
-191 -11 0
-191 -47 0
-191 -10 0
191 64 2 31 -41 -9 -85 -26 11 47 10 0
-192 85 0
-192 -70 0
-192 -53 0
-192 -24 0
-192 59 0
-192 -81 0
-192 49 0
-192 73 0
-192 94 0
-192 26 0
192 -85 70 53 24 -59 81 -49 -73 -94 -26 0
-193 85 0
-193 46 0
-193 8 0
-193 22 0
-193 95 0
-193 79 0
-193 3 0
-193 43 0
-193 -15 0
-193 21 0
193 -85 -46 -8 -22 -95 -79 -3 -43 15 -21 0
-194 62 0
-194 -23 0
-194 -65 0
-194 -86 0
-194 80 0
-194 -44 0
-194 57 0
-194 38 0
-194 34 0
-194 -39 0
194 -62 23 65 86 -80 44 -57 -38 -34 39 0
-195 -61 0
-195 -97 0
-195 -45 0
-195 19 0
-195 -71 0
-195 -88 0
-195 -3 0
-195 -56 0
-195 81 0
-195 10 0
195 61 97 45 -19 71 88 3 56 -81 -10 0
-196 36 0
-196 -78 0
-196 -99 0
-196 28 0
-196 -95 0
-196 -49 0
-196 65 0
-196 -75 0
-196 -12 0
-196 -69 0
196 -36 78 99 -28 95 49 -65 75 12 69 0
-197 55 0
-197 40 0
-197 17 0
-197 -89 0
-197 -86 0
-197 -67 0
-197 7 0
-197 -13 0
-197 -37 0
-197 31 0
197 -55 -40 -17 89 86 67 -7 13 37 -31 0
-198 75 0
-198 -29 0
-198 38 0
-198 -97 0
-198 11 0
-198 -85 0
-198 25 0
-198 -46 0
-198 88 0
-198 73 0
198 -75 29 -38 97 -11 85 -25 46 -88 -73 0
-199 -34 0
-199 -75 0
-199 -40 0
-199 -96 0
-199 4 0
-199 -44 0
-199 -7 0
-199 11 0
-199 62 0
-199 35 0
199 34 75 40 96 -4 44 7 -11 -62 -35 0
-200 -19 0
-200 33 0
-200 -18 0
-200 84 0
-200 97 0
-200 77 0
-200 -2 0
-200 -12 0
-200 79 0
-200 13 0
200 19 -33 18 -84 -97 -77 2 12 -79 -13 0
191 192 193 194 195 196 197 198 199 200 0
